
Gurobi 12.0.0 (linux64) logging started Sun Dec  8 00:19:35 2024

Set parameter LogFile to value "log/st5.log"
Set parameter MIPFocus to value 1
Set parameter TimeLimit to value 30
Gurobi Optimizer version 12.0.0 build v12.0.0rc1 (linux64 - "Ubuntu 20.04.6 LTS")

CPU model: AMD Ryzen 7 5700U with Radeon Graphics, instruction set [SSE2|AVX|AVX2]
Thread count: 8 physical cores, 16 logical processors, using up to 16 threads

Non-default parameters:
TimeLimit  30
MIPFocus  1

Optimize a model with 3075 rows, 20175 columns and 4800 nonzeros
Model fingerprint: 0x9f994cb2
Model has 19425 simple general constraints
  2775 OR, 16650 INDICATOR
Variable types: 225 continuous, 19950 integer (19950 binary)
Coefficient statistics:
  Matrix range     [1e+00, 1e+02]
  Objective range  [7e+01, 1e+02]
  Bounds range     [1e+00, 3e+02]
  RHS range        [1e+00, 3e+02]
  GenCon coe range [1e+00, 1e+02]
Presolve added 16650 rows and 0 columns
Presolve removed 0 rows and 2790 columns
Presolve time: 0.66s
Presolved: 19725 rows, 17385 columns, 170238 nonzeros
Variable types: 225 continuous, 17160 integer (17160 binary)
Found heuristic solution: objective 7838.0000000
Found heuristic solution: objective 7797.0000000
Performing another presolve...
Presolve time: 0.27s
Deterministic concurrent LP optimizer: primal and dual simplex
Showing primal log only...

Concurrent spin time: 0.00s

Solved with dual simplex

Root relaxation: objective 0.000000e+00, 19463 iterations, 0.94 seconds (0.57 work units)

    Nodes    |    Current Node    |     Objective Bounds      |     Work
 Expl Unexpl |  Obj  Depth IntInf | Incumbent    BestBd   Gap | It/Node Time

     0     0    0.00000    0  682 7797.00000    0.00000   100%     -    3s
H    0     0                    7766.0000000    0.00000   100%     -    3s
H    0     0                    7385.0000000    0.00000   100%     -    3s
H    0     0                    7067.0000000    0.00000   100%     -    3s
H    0     0                    6181.0000000    0.00000   100%     -    3s
H    0     0                    6143.0000000    0.00000   100%     -    3s
H    0     0                    6056.0000000    0.00000   100%     -    3s
H    0     0                    5934.0000000    0.00000   100%     -    3s
H    0     0                    5908.0000000    0.00000   100%     -    3s
H    0     0                    5733.0000000    0.00000   100%     -    3s
H    0     0                    5646.0000000    0.00000   100%     -    3s
H    0     0                    5572.0000000    0.00000   100%     -    3s
     0     0    0.00000    0 1660 5572.00000    0.00000   100%     -    3s
     0     0    0.00000    0 1488 5572.00000    0.00000   100%     -    4s
H    0     0                    5500.0000000    0.00000   100%     -    4s
H    0     0                    5499.0000000    0.00000   100%     -    8s
H    0     0                    5447.0000000    0.00000   100%     -    8s
H    0     0                    5436.0000000    0.00000   100%     -    8s
H    0     0                    5414.0000000    0.00000   100%     -    8s
H    0     0                    5337.0000000    0.00000   100%     -    8s
H    0     0                    5250.0000000    0.00000   100%     -    8s
H    0     0                    5239.0000000    0.00000   100%     -    8s
H    0     0                    5145.0000000    0.00000   100%     -    8s
     0     0    0.00000    0 1020 5145.00000    0.00000   100%     -    8s
     0     0    0.00000    0  930 5145.00000    0.00000   100%     -    8s
H    0     0                    5054.0000000    0.00000   100%     -   10s
H    0     0                    5025.0000000    0.00000   100%     -   10s
H    0     0                    4940.0000000    0.00000   100%     -   10s
     0     0    0.00000    0  750 4940.00000    0.00000   100%     -   10s
     0     0    0.00000    0  774 4940.00000    0.00000   100%     -   10s
     0     0    0.00000    0  877 4940.00000    0.00000   100%     -   12s
     0     0    0.00000    0  848 4940.00000    0.00000   100%     -   12s
     0     0    0.00000    0  854 4940.00000    0.00000   100%     -   13s
H    0     0                    4872.0000000    0.00000   100%     -   14s
     0     2    0.00000    0  743 4872.00000    0.00000   100%     -   15s
H   27    53                    4870.0000000    0.00000   100%   594   16s
H  164   205                    4783.0000000    0.00000   100%   129   18s
   206  1203    0.00000   37 1634 4783.00000    0.00000   100%   104   21s
  1369  1430    0.00000  190 1577 4783.00000    0.00000   100%  21.3   25s
  1494  1505    0.00000  193 1573 4783.00000    0.00000   100%  20.0   30s

Cutting planes:
  Learned: 3
  Gomory: 18
  Cover: 14
  Implied bound: 10
  Clique: 3
  MIR: 321
  StrongCG: 1
  GUB cover: 326
  RLT: 5
  Relax-and-lift: 23

Explored 1508 nodes (128605 simplex iterations) in 30.02 seconds (24.01 work units)
Thread count was 16 (of 16 available processors)

Solution count 10: 4783 4870 4872 ... 5337

Time limit reached
Best objective 4.783000000000e+03, best bound 0.000000000000e+00, gap 100.0000%

Gurobi 12.0.0 (linux64) logging started Sun Dec  8 01:29:59 2024

Set parameter LogFile to value "log/st5.log"
Set parameter MIPFocus to value 1
Set parameter TimeLimit to value 30
Gurobi Optimizer version 12.0.0 build v12.0.0rc1 (linux64 - "Ubuntu 20.04.6 LTS")

CPU model: AMD Ryzen 7 5700U with Radeon Graphics, instruction set [SSE2|AVX|AVX2]
Thread count: 8 physical cores, 16 logical processors, using up to 16 threads

Non-default parameters:
TimeLimit  30
MIPFocus  1

Optimize a model with 3075 rows, 20175 columns and 4800 nonzeros
Model fingerprint: 0xfb042148
Model has 19425 simple general constraints
  2775 OR, 16650 INDICATOR
Variable types: 225 continuous, 19950 integer (19950 binary)
Coefficient statistics:
  Matrix range     [1e+00, 1e+02]
  Objective range  [7e+01, 1e+02]
  Bounds range     [1e+00, 3e+02]
  RHS range        [1e+00, 3e+02]
  GenCon coe range [1e+00, 1e+02]
Presolve added 16650 rows and 0 columns
Presolve removed 0 rows and 2781 columns
Presolve time: 0.62s
Presolved: 19725 rows, 17394 columns, 172272 nonzeros
Variable types: 225 continuous, 17169 integer (17169 binary)
Found heuristic solution: objective 7267.0000000
Found heuristic solution: objective 7266.0000000
Performing another presolve...
Presolve time: 0.27s
Deterministic concurrent LP optimizer: primal and dual simplex
Showing primal log only...

Concurrent spin time: 0.00s

Solved with dual simplex

Root relaxation: objective 0.000000e+00, 19559 iterations, 0.71 seconds (0.53 work units)

    Nodes    |    Current Node    |     Objective Bounds      |     Work
 Expl Unexpl |  Obj  Depth IntInf | Incumbent    BestBd   Gap | It/Node Time

     0     0    0.00000    0 1478 7266.00000    0.00000   100%     -    2s
H    0     0                    7197.0000000    0.00000   100%     -    2s
H    0     0                    6986.0000000    0.00000   100%     -    2s
H    0     0                    6459.0000000    0.00000   100%     -    2s
H    0     0                    5885.0000000    0.00000   100%     -    2s
H    0     0                    5813.0000000    0.00000   100%     -    2s
H    0     0                    5739.0000000    0.00000   100%     -    2s
H    0     0                    5700.0000000    0.00000   100%     -    2s
H    0     0                    5685.0000000    0.00000   100%     -    2s
H    0     0                    5623.0000000    0.00000   100%     -    2s
H    0     0                    5512.0000000    0.00000   100%     -    2s
     0     0    0.00000    0 1874 5512.00000    0.00000   100%     -    3s
H    0     0                    5444.0000000    0.00000   100%     -    3s
H    0     0                    5338.0000000    0.00000   100%     -    3s
     0     0    0.00000    0 1727 5338.00000    0.00000   100%     -    3s
H    0     0                    5261.0000000    0.00000   100%     -    4s
H    0     0                    5187.0000000    0.00000   100%     -    4s
H    0     0                    5097.0000000    0.00000   100%     -   14s
H    0     0                    5061.0000000    0.00000   100%     -   14s
H    0     0                    5056.0000000    0.00000   100%     -   14s
H    0     0                    5052.0000000    0.00000   100%     -   14s
H    0     0                    5050.0000000    0.00000   100%     -   14s
H    0     0                    5048.0000000    0.00000   100%     -   14s
H    0     0                    5024.0000000    0.00000   100%     -   14s
H    0     0                    4956.0000000    0.00000   100%     -   14s
H    0     0                    4954.0000000    0.00000   100%     -   14s
H    0     0                    4949.0000000    0.00000   100%     -   14s
H    0     0                    4848.0000000    0.00000   100%     -   14s
H    0     0                    4843.0000000    0.00000   100%     -   14s
H    0     0                    4762.0000000    0.00000   100%     -   14s
H    0     0                    4756.0000000    0.00000   100%     -   14s
H    0     0                    4683.0000000    0.00000   100%     -   14s
H    0     0                    4680.0000000    0.00000   100%     -   14s
H    0     0                    4644.0000000    0.00000   100%     -   14s
H    0     0                    4623.0000000    0.00000   100%     -   14s
     0     0    0.00000    0 1321 4623.00000    0.00000   100%     -   14s
     0     0    0.00000    0 1227 4623.00000    0.00000   100%     -   14s
H    0     0                    4598.0000000    0.00000   100%     -   24s
H    0     0                    4521.0000000    0.00000   100%     -   24s
     0     0    0.00000    0  762 4521.00000    0.00000   100%     -   24s
     0     0    0.00000    0 1098 4521.00000    0.00000   100%     -   24s
     0     0    0.00000    0  736 4521.00000    0.00000   100%     -   27s
     0     0    0.00000    0  758 4521.00000    0.00000   100%     -   27s
     0     0    0.00000    0  784 4521.00000    0.00000   100%     -   28s
     0     2    0.00000    0  672 4521.00000    0.00000   100%     -   29s
     3     8    0.00000    2  729 4521.00000    0.00000   100%  1556   30s

Cutting planes:
  Learned: 2
  Cover: 21
  Implied bound: 4
  Clique: 8
  MIR: 138
  StrongCG: 1
  GUB cover: 234
  RLT: 1
  Relax-and-lift: 7

Explored 7 nodes (116830 simplex iterations) in 30.02 seconds (23.38 work units)
Thread count was 16 (of 16 available processors)

Solution count 10: 4521 4598 4623 ... 4848

Time limit reached
Best objective 4.521000000000e+03, best bound 0.000000000000e+00, gap 100.0000%
